5668869746597022018503,14,1,2,06,5,1,2,015,12,1,2,011,9,1,2,03,15,1,2,04,14,1,2,09,12,1,2,09,14,1,2,06,15,1,2,013,1,1,2,014,3,1,2,02,8,1,2,01,12,1,2,06,9,1,2,04,10,1,2,05,15,1,2,012,11,1,2,012,5,1,2,02,5,1,2,08,3,1,2,01,7,1,2,010,12,1,2,03,3,1,2,03,3,1,2,04,8,1,2,03,9,1,2,06,13,1,2,013,13,1,2,012,11,1,2,04,10,1,2,02,14,1,2,09,15,1,2,01,7,1,2,09,7,1,2,04,5,1,2,08,3,1,2,012,11,1,2,06,1,1,2,011,7,1,2,02,9,1,2,06,10,1,2,06,3,1,2,06,8,1,2,013,3,1,2,05,14,1,2,013,13,1,2,012,14,1,2,05,2,1,2,014,3,1,2,012,5,1,2,0